50 9984
1485 6094 7326 5506 10248 5416 6421 1992 1322 7649 6795 10237 9043 7457 3845 8815 5955 10446 10252 4422 2009 9791 6901 10359 2122 6667 2094 2598 9738 3007 9574 1544 6715 6334 9882 3766 2367 4994 10984 10893 4299 3633 10433 8131 6682 6428 1072 7700 8874 1617 
485 5094 6326 4506 9248 4416 5421 992 322 6649 5795 9237 8043 6457 2845 7815 4955 9446 9252 3422 1009 8791 5901 9359 1122 5667 1094 1598 8738 2007 8574 544 5715 5334 8882 2766 1367 3994 9984 9893 3299 2633 9433 7131 5682 5428 72 6700 7874 617 
